experiment/data/lkh-res/Vrp-Set-X-n270/Vrp-Set-X-n270-lkh/0.lkh1.vrp
NAME : 0
COMMENT : CVRP Instance
TYPE : CVRP
DIMENSION : 270
EDGE_WEIGHT_TYPE : EUC_2D
CAPACITY : 585
NODE_COORD_SECTION
1	50000	50000
2	64300	51200
3	70700	40700
4	39400	35500
5	14000	47000
6	36400	21500
7	49300	85700
8	11700	46600
9	46200	3800
10	55100	47900
11	74200	49800
12	53300	70600
13	78800	42500
14	79900	600
15	83600	68000
16	8800	22500
17	16400	98800
18	53700	2000
19	61200	39500
20	31400	94200
21	34200	97400
22	51800	75800
23	86000	77400
24	31300	3600
25	27500	2300
26	32400	97100
27	82200	58800
28	27200	45800
29	62000	66600
30	86800	42700
31	69400	75000
32	95300	41900
33	23600	82300
34	88700	41100
35	12400	81400
36	19300	89900
37	68700	30300
38	44700	22000
39	71600	47200
40	41500	14100
41	73800	30900
42	44500	67200
43	52400	6000
44	11200	15700
45	85900	93500
46	10400	59600
47	55600	5400
48	36200	22300
49	72300	66100
50	47400	33800
51	27400	56800
52	31500	38000
53	70400	86300
54	93600	26000
55	9300	85900
56	70300	93500
57	38100	30200
58	69500	23900
59	88000	82300
60	33500	96100
61	3700	63700
62	28800	16900
63	45500	49900
64	59900	79600
65	15500	91000
66	8000	45900
67	9300	56500
68	95900	54400
69	92600	5800
70	76200	53100
71	2200	83900
72	45900	57500
73	73700	40900
74	85400	32800
75	92100	78100
76	22100	2300
77	68500	17900
78	20200	80400
79	42200	99200
80	94500	29200
81	6600	97600
82	48700	42900
83	61400	71100
84	40700	54600
85	88300	29800
86	70900	69200
87	53500	31900
88	96500	21700
89	33600	3500
90	70300	59500
91	67700	84100
92	5100	50300
93	33400	96800
94	62800	15400
95	48800	43700
96	68000	86900
97	98700	26400
98	47400	90600
99	86600	91100
100	94000	54200
101	10600	98800
102	55800	39800
103	66100	20600
104	50000	1700
105	71000	58800
106	2300	69600
107	18100	90900
108	10700	55600
109	51600	40900
110	34500	87900
111	68400	74200
112	8600	68200
113	44700	18200
114	82500	54500
115	88000	7200
116	84000	68900
117	12900	53200
118	8900	30500
119	43400	40700
120	34800	13200
121	39000	47300
122	59800	28600
123	46400	89100
124	67100	33600
125	76200	90900
126	13600	63300
127	4000	81400
128	44500	88900
129	98000	13500
130	31800	200
131	68800	10100
132	38700	14200
133	48000	33900
134	8500	6900
135	88400	82600
136	78900	71900
137	90700	9600
138	20700	2400
139	55700	69400
140	2200	200
141	74000	69500
142	89700	7500
143	84400	19600
144	9300	5000
145	73100	70800
146	69900	89900
147	4500	3200
148	76800	58400
149	15300	5300
150	67100	66900
151	81800	71500
152	93300	65900
153	50000	70600
154	91400	13900
155	89100	8500
156	7300	14700
157	79400	76900
158	86200	84900
159	50400	64300
160	52400	64400
161	4900	3600
162	53900	72800
163	13900	11800
164	93100	58800
165	85000	2800
166	89100	61200
167	76000	76200
168	70900	63600
169	62800	44800
170	27700	4500
171	58800	72000
172	80300	71000
173	71200	6300
174	80400	6800
175	8000	3300
176	88600	13100
177	53600	31800
178	89900	16100
179	18900	1700
180	14000	6200
181	54800	66700
182	83800	83500
183	89000	74900
184	99800	67500
185	86200	27200
186	55100	69500
187	69200	75700
188	73500	75200
189	46800	62600
190	53500	66500
191	73400	6600
192	85300	15900
193	93600	9300
194	94100	6300
195	71700	54500
196	92900	17500
197	71900	74300
198	22400	2500
199	77300	71700
200	70900	71200
201	46700	57900
202	55000	68300
203	26400	12200
204	74900	18200
205	23400	5600
206	86800	93600
207	83300	9300
208	76200	77400
209	55500	59300
210	79000	70500
211	5900	9400
212	57600	67400
213	49400	60700
214	41200	70100
215	61400	62700
216	88300	59700
217	23300	6400
218	59800	65900
219	81300	61100
220	91600	10500
221	86800	60300
222	55500	67300
223	78200	72400
224	9300	10000
225	74300	87000
226	60000	45200
227	61900	75300
228	89200	18100
229	85000	54700
230	60000	72700
231	6300	17500
232	78900	59800
233	600	8300
234	11600	2700
235	75300	61500
236	89600	10000
237	700	900
238	75400	74500
239	77700	76000
240	8800	3200
241	80300	6400
242	90100	10900
243	3600	800
244	83500	4200
245	59100	54300
246	57600	87200
247	53000	70700
248	18700	15300
249	62700	78900
250	2100	6200
251	78700	65000
252	19400	35000
253	85700	70400
254	48700	67200
255	51100	73200
256	87200	79400
257	9900	7700
258	86400	5800
259	14300	14900
260	91000	23600
261	96300	9100
262	13300	5600
263	74700	66600
264	71200	73600
265	77100	72500
266	30200	5900
267	93500	10700
268	76600	68000
269	68000	68300
270	64800	80000
DEMAND_SECTION
1	0
2	77
3	91
4	67
5	69
6	68
7	64
8	65
9	83
10	64
11	77
12	87
13	99
14	84
15	74
16	89
17	76
18	68
19	87
20	69
21	97
22	87
23	59
24	82
25	75
26	55
27	95
28	63
29	87
30	72
31	53
32	66
33	95
34	58
35	76
36	66
37	53
38	67
39	56
40	71
41	67
42	52
43	85
44	99
45	62
46	51
47	53
48	63
49	71
50	78
51	71
52	77
53	85
54	82
55	94
56	67
57	54
58	66
59	64
60	94
61	75
62	72
63	66
64	95
65	59
66	68
67	94
68	84
69	94
70	62
71	73
72	66
73	97
74	71
75	62
76	60
77	86
78	99
79	51
80	90
81	72
82	84
83	78
84	81
85	50
86	55
87	56
88	80
89	63
90	52
91	71
92	75
93	71
94	59
95	78
96	89
97	89
98	93
99	74
100	73
101	85
102	68
103	71
104	78
105	90
106	60
107	95
108	75
109	65
110	92
111	79
112	95
113	99
114	75
115	91
116	80
117	91
118	71
119	55
120	97
121	71
122	53
123	99
124	60
125	70
126	99
127	97
128	75
129	54
130	73
131	51
132	84
133	72
134	97
135	60
136	82
137	67
138	57
139	62
140	93
141	97
142	94
143	91
144	56
145	71
146	92
147	92
148	78
149	100
150	93
151	99
152	95
153	99
154	57
155	78
156	100
157	69
158	53
159	80
160	80
161	76
162	99
163	58
164	68
165	51
166	64
167	97
168	55
169	100
170	52
171	99
172	66
173	74
174	68
175	97
176	100
177	59
178	72
179	63
180	74
181	72
182	85
183	93
184	100
185	66
186	53
187	93
188	95
189	61
190	89
191	86
192	80
193	74
194	56
195	78
196	78
197	66
198	85
199	89
200	74
201	57
202	84
203	88
204	97
205	93
206	80
207	53
208	51
209	85
210	55
211	89
212	72
213	53
214	60
215	97
216	89
217	94
218	81
219	76
220	98
221	94
222	68
223	71
224	52
225	69
226	87
227	93
228	64
229	64
230	71
231	94
232	66
233	60
234	92
235	61
236	86
237	100
238	93
239	70
240	88
241	66
242	81
243	51
244	73
245	91
246	86
247	68
248	89
249	52
250	79
251	60
252	60
253	60
254	55
255	95
256	73
257	80
258	79
259	86
260	79
261	89
262	88
263	70
264	56
265	80
266	64
267	51
268	85
269	88
270	70
DEPOT_SECTION
1
-1
EOF
