experiment/data/lkh-res/Vrp-Set-X-n270/Vrp-Set-X-n270-lkh/0.lkh1.tour
NAME : 0.3633320.tour
COMMENT : Length = 3633320
COMMENT : Found by LKH-3 [Keld Helsgaun] Tue Apr  9 05:19:01 2024
TYPE : TOUR
DIMENSION : 304
TOUR_SECTION
1
10
200
264
197
188
187
31
111
275
161
147
175
240
234
180
48
297
208
23
256
59
135
75
183
253
235
277
84
189
159
190
222
181
160
213
279
259
224
134
257
163
248
4
119
283
94
131
173
191
14
241
174
204
302
58
207
244
165
258
115
142
155
299
87
177
38
113
40
132
6
95
271
157
182
158
99
206
45
125
53
295
254
79
21
93
60
26
20
110
291
57
144
243
140
237
250
233
211
293
52
262
149
179
138
76
198
170
296
44
156
231
16
118
252
121
281
226
169
3
73
39
11
2
287
13
129
261
194
69
193
267
137
298
42
65
17
101
81
71
127
51
284
120
266
25
205
217
203
62
300
37
192
228
196
88
97
80
85
272
22
7
128
123
98
246
218
301
148
232
219
15
116
151
251
90
292
153
255
162
247
12
186
202
303
225
56
146
96
91
270
249
212
304
34
32
68
100
164
166
221
195
289
5
8
66
92
67
117
72
201
274
143
178
154
220
236
242
176
280
209
145
223
136
172
210
268
263
294
215
150
269
49
168
105
245
276
109
102
122
103
77
133
50
82
273
139
171
230
64
227
83
29
278
70
114
229
216
184
152
27
282
43
47
18
104
9
89
130
24
288
141
199
265
239
167
238
86
290
19
124
41
185
260
54
74
30
285
214
33
36
107
55
35
78
286
126
112
106
61
46
108
28
63
-1
EOF
